HmaxDs = 0.000000
HmaxUB_percent = 1.289576
HmaxUB_real = 3822.214476
FTnetDs = 1.500000
FTnetUB_percent = 2.033474
FTnetUB_real = 7972.641512
TIFgap = 0.500000
LimCIPF = 57.77342935
SCIP version 1.1.0 [precision: 8 byte] [memory: block] [mode: optimized] [LP solver: Clp 1.8.2]
Copyright (c) 2002-2008 Konrad-Zuse-Zentrum fuer Informationstechnik Berlin (ZIB)

reading user parameter file </home/fabio/docs/hierarquia/models/scip.set>

read problem <data.N30.I1.s1.cluster2.T6.GL2.W5.TIFgap0.5.mps.gz>
============

original problem has 1520 variables (765 bin, 0 int, 0 impl, 755 cont) and 385 constraints

solve problem
=============

presolving:
(round 1) 3 del vars, 3 del conss, 4 chg bounds, 0 chg sides, 125 chg coeffs, 0 upgd conss, 0 impls, 150 clqs
(round 2) 5 del vars, 3 del conss, 4 chg bounds, 1 chg sides, 125 chg coeffs, 0 upgd conss, 0 impls, 150 clqs
(round 3) 5 del vars, 3 del conss, 4 chg bounds, 3 chg sides, 125 chg coeffs, 0 upgd conss, 0 impls, 150 clqs
(round 4) 5 del vars, 4 del conss, 4 chg bounds, 3 chg sides, 125 chg coeffs, 151 upgd conss, 0 impls, 150 clqs
(round 5) 56 del vars, 4 del conss, 4 chg bounds, 3 chg sides, 125 chg coeffs, 151 upgd conss, 2948 impls, 140 clqs
(round 6) 56 del vars, 14 del conss, 4 chg bounds, 3 chg sides, 125 chg coeffs, 151 upgd conss, 2948 impls, 140 clqs
presolving (7 rounds):
 56 deleted vars, 14 deleted constraints, 4 tightened bounds, 0 added holes, 3 changed sides, 125 changed coefficients
 109956 implications, 140 cliques
presolved problem has 1464 variables (714 bin, 0 int, 0 impl, 750 cont) and 371 constraints
      1 constraints of type <knapsack>
    140 constraints of type <setppc>
    230 constraints of type <linear>
Presolving Time: 1.35

 time | node  | left  |LP iter| mem |mdpt |frac |vars |cons |ccons|cols |rows |cuts |confs|strbr|  dualbound   | primalbound  |  gap   
  1.4s|     1 |     0 |   493 |6090k|   0 | 174 |1464 | 371 | 371 |1464 | 371 |   0 |   0 |   0 | 1.178022e+01 |      --      |    Inf 
  2.5s|     1 |     0 |  4398 |6508k|   0 | 150 |1464 | 371 | 371 |1464 | 419 |  48 |   0 |   0 | 2.881937e+01 |      --      |    Inf 
  3.0s|     1 |     0 |  4687 |6632k|   0 | 183 |1464 | 371 | 371 |1464 | 445 |  74 |   0 |   0 | 3.179046e+01 |      --      |    Inf 
  3.7s|     1 |     0 |  5075 |6747k|   0 | 157 |1464 | 371 | 371 |1464 | 465 |  94 |   0 |   0 | 3.518440e+01 |      --      |    Inf 
  4.5s|     1 |     0 |  5261 |6769k|   0 | 162 |1464 | 371 | 371 |1464 | 476 | 105 |   0 |   0 | 3.532042e+01 |      --      |    Inf 
  5.5s|     1 |     0 |  5968 |6787k|   0 | 178 |1464 | 371 | 371 |1464 | 482 | 111 |   0 |   0 | 4.053531e+01 |      --      |    Inf 
  6.4s|     1 |     0 |  6441 |6834k|   0 | 163 |1464 | 371 | 371 |1464 | 492 | 121 |   0 |   0 | 5.072684e+01 |      --      |    Inf 
  7.2s|     1 |     0 |  6715 |6868k|   0 | 170 |1464 | 371 | 371 |1464 | 501 | 130 |   0 |   0 | 5.419346e+01 |      --      |    Inf 
  8.1s|     1 |     0 |  7117 |6885k|   0 | 159 |1464 | 371 | 371 |1464 | 508 | 137 |   0 |   0 | 6.547437e+01 |      --      |    Inf 
  9.0s|     1 |     0 |  7333 |6899k|   0 | 170 |1464 | 371 | 371 |1464 | 515 | 144 |   0 |   0 | 7.111715e+01 |      --      |    Inf 
  9.9s|     1 |     0 |  7343 |6904k|   0 | 171 |1464 | 371 | 371 |1464 | 518 | 147 |   0 |   0 | 7.113409e+01 |      --      |    Inf 
 13.0s|     1 |     2 |  7365 |6913k|   0 | 171 |1464 | 371 | 371 |1464 | 518 | 147 |   0 |  20 | 7.113409e+01 |      --      |    Inf 
 70.9s|   100 |     4 | 67948 |6435k|  14 | 154 |1464 | 374 | 317 |1464 | 459 | 147 |  33 | 974 | 7.733642e+01 |      --      |    Inf 

SCIP Status        : problem is solved [infeasible]
Solving Time (sec) : 78.44
Solving Nodes      : 114
Primal Bound       : +1.00000000000000e+20 (0 solutions)
Dual Bound         : +1.00000000000000e+20
Gap                : 0.00 %

primal solution:
================

no solution available

Statistics
==========

SCIP Status        : problem is solved [infeasible]
Solving Time       :      78.44
Original Problem   :
  Problem name     : labtel
  Variables        : 1520 (765 binary, 0 integer, 0 implicit integer, 755 continuous)
  Constraints      : 385 initial, 385 maximal
Presolved Problem  :
  Problem name     : t_labtel
  Variables        : 1464 (714 binary, 0 integer, 0 implicit integer, 750 continuous)
  Constraints      : 371 initial, 388 maximal
Presolvers         :       Time  FixedVars   AggrVars   ChgTypes  ChgBounds   AddHoles    DelCons   ChgSides   ChgCoefs
  trivial          :       0.00          0          0          0          0          0          0          0          0
  dualfix          :       0.00          0          0          0          0          0          0          0          0
  boundshift       :       0.00          0          0          0          0          0          0          0          0
  inttobinary      :       0.00          0          0          0          0          0          0          0          0
  implics          :       0.00          0          0          0          0          0          0          0          0
  probing          :       1.30         51          0          0          0          0          0          0          0
  knapsack         :       0.00          0          0          0          0          0          0          0          0
  setppc           :       0.01          0          0          0          0          0         10          0          0
  linear           :       0.03          0          5          0          4          0          4          3        125
  logicor          :       0.00          0          0          0          0          0          0          0          0
  root node        :          -        154          -          -        154          -          -          -          -
Constraints        :     Number  #Separate #Propagate    #EnfoLP    #EnfoPS    Cutoffs    DomReds       Cuts      Conss   Children
  integral         :          0          0          0         61          0          0          0          0          0        122
  knapsack         :          1         11       2269          0          0          0          0          0          0          0
  setppc           :        140         11       2269          0          0          1      12314          0          0          0
  linear           :        230         11       2268          0          0         29       2722          0          0          0
  logicor          :          0+         0         94          0          0          3         52          0          0          0
  countsols        :          0          0          0          0          0          0          0          0          0          0
Constraint Timings :  TotalTime   Separate  Propagate     EnfoLP     EnfoPS
  integral         :      36.39       0.00       0.00      36.39       0.00
  knapsack         :       0.00       0.00       0.00       0.00       0.00
  setppc           :       0.31       0.00       0.31       0.00       0.00
  linear           :       0.84       0.04       0.80       0.00       0.00
  logicor          :       0.00       0.00       0.00       0.00       0.00
  countsols        :       0.00       0.00       0.00       0.00       0.00
Propagators        :       Time      Calls    Cutoffs    DomReds
  rootredcost      :       0.00          0          0          0
  pseudoobj        :       0.02        379          0          0
Conflict Analysis  :       Time      Calls    Success  Conflicts   Literals    Reconvs ReconvLits   LP Iters
  propagation      :       0.00         32         30         59       17.9          0        0.0          -
  infeasible LP    :       0.03         29          3         11       52.2          0        0.0          0
  bound exceed. LP :       0.00          0          0          0        0.0          0        0.0          0
  strong branching :       0.00          0          0          0        0.0          0        0.0          0
  pseudo solution  :       0.00          0          0          0        0.0          0        0.0          -
  applied globally :          -          -          -         47       11.1          -          -          -
  applied locally  :          -          -          -          0        0.0          -          -          -
Separators         :       Time      Calls    Cutoffs    DomReds       Cuts      Conss
  cut pool         :       0.00         10          -          -         26          -    (maximal pool size: 218)
  redcost          :       0.00         71          0          0          0          0
  impliedbounds    :       0.01         11          0          0          0          0
  intobj           :       0.00          0          0          0          0          0
  gomory           :       0.26         11          0          0          3          0
  strongcg         :       0.18         11          0          0          0          0
  cmir             :       5.41         10          0          0        214          0
  flowcover        :       0.64         10          0          0         10          0
  clique           :       0.14         11          0          0          0          0
  zerohalf         :       0.00          0          0          0          0          0
  mcf              :       0.00          0          0          0          0          0
Pricers            :       Time      Calls       Vars
  problem variables:       0.00          0          0
Branching Rules    :       Time      Calls    Cutoffs    DomReds       Cuts      Conss   Children
  relpscost        :      36.38         61          0          0          0          0        122
  pscost           :       0.00          0          0          0          0          0          0
  inference        :       0.00          0          0          0          0          0          0
  mostinf          :       0.00          0          0          0          0          0          0
  leastinf         :       0.00          0          0          0          0          0          0
  fullstrong       :       0.00          0          0          0          0          0          0
  allfullstrong    :       0.00          0          0          0          0          0          0
  random           :       0.00          0          0          0          0          0          0
Primal Heuristics  :       Time      Calls      Found
  LP solutions     :       0.00          -          0
  pseudo solutions :       0.00          -          0
  oneopt           :       0.00          0          0
  coefdiving       :       0.00          0          0
  pscostdiving     :       0.00          0          0
  fracdiving       :       0.00          0          0
  veclendiving     :       0.00          0          0
  objpscostdiving  :       0.00          0          0
  rootsoldiving    :       0.00          0          0
  linesearchdiving :       0.00          0          0
  guideddiving     :       0.00          0          0
  crossover        :       0.00          0          0
  intshifting      :       0.02          1          0
  simplerounding   :       0.00          0          0
  rounding         :       0.01         71          0
  shifting         :       0.05         12          0
  fixandinfer      :       0.00          0          0
  feaspump         :       0.58          1          0
  intdiving        :       0.00          0          0
  actconsdiving    :       0.00          0          0
  octane           :       0.00          0          0
  rens             :       2.17          1          0
  rins             :       0.00          0          0
  localbranching   :       0.00          0          0
  mutation         :       0.00          0          0
  dins             :       0.00          0          0
LP                 :       Time      Calls Iterations  Iter/call   Iter/sec
  primal LP        :       0.30          2        686     343.00    2286.67
  dual LP          :      30.36        117      74519     636.91    2454.51
  barrier LP       :       0.00          0          0       0.00          -
  diving/probing LP:       0.55         27       3557     131.74    6467.27
  strong branching :      36.37       1060     122076     115.17    3356.50
    (at root node) :          -         20       2578     128.90          -
  conflict analysis:       0.00          0          0       0.00          -
B&B Tree           :
  number of runs   :          1
  nodes            :        114
  nodes (total)    :        114
  nodes left       :          0
  max depth        :         18
  max depth (total):         18
  backtracks       :         18 (15.8%)
  delayed cutoffs  :          9
  repropagations   :         63 (2478 domain reductions, 8 cutoffs)
  avg switch length:       2.77
  switching time   :       0.10
Solution           :
  Solutions found  :          0 (0 improvements)
  Primal Bound     : infeasible
  Dual Bound       :          -
  Gap              :       0.00 %
  Root Dual Bound  : +7.11340912332126e+01
